jobs  (incl. supersource/sink ):	102
RESOURCES
- renewable                 : 2 R
- nonrenewable              : 2 N
- doubly constrained        : 0 D
************************************************************************
PRECEDENCE RELATIONS:
jobnr.    #modes  #successors   successors
1	1	16		2 3 4 5 6 7 8 9 11 12 13 14 15 16 18 19 
2	3	10		53 45 37 36 32 31 26 22 17 10 
3	3	15		60 49 48 47 46 45 43 37 33 32 31 28 27 23 20 
4	3	16		57 52 49 47 43 42 40 38 36 34 32 30 29 27 26 24 
5	3	13		49 47 46 43 42 40 37 36 35 32 30 23 21 
6	3	12		52 49 47 39 38 35 33 32 30 26 24 22 
7	3	14		57 56 53 52 50 49 45 42 40 39 38 37 36 26 
8	3	9		56 49 47 36 35 32 31 30 23 
9	3	15		60 57 56 55 54 53 52 49 48 44 43 41 40 32 29 
10	3	11		57 56 52 49 48 46 43 42 38 30 24 
11	3	12		81 72 56 53 52 50 49 42 40 38 36 26 
12	3	11		72 63 60 57 53 46 42 40 38 28 25 
13	3	8		59 57 49 45 39 34 30 26 
14	3	11		60 59 57 55 52 49 45 44 38 34 32 
15	3	10		81 57 56 50 46 44 39 38 35 30 
16	3	12		72 63 60 57 55 54 53 49 46 43 41 33 
17	3	9		63 60 50 48 47 44 38 35 33 
18	3	14		81 73 72 68 62 60 56 53 52 50 48 46 44 35 
19	3	11		81 73 58 55 54 53 48 46 42 40 36 
20	3	14		81 72 70 65 62 59 56 55 54 53 52 50 44 38 
21	3	9		63 60 57 52 48 45 44 41 33 
22	3	12		80 72 63 60 57 56 55 54 51 48 43 41 
23	3	14		81 72 71 63 62 61 59 58 57 55 54 53 51 41 
24	3	13		81 80 73 72 71 63 62 61 60 54 51 50 41 
25	3	14		81 80 75 71 70 66 65 59 56 55 54 52 51 50 
26	3	8		101 62 61 58 55 54 44 41 
27	3	6		81 76 73 66 44 35 
28	3	13		101 81 76 73 70 68 66 65 64 62 61 59 44 
29	3	11		76 75 73 72 68 65 63 59 58 50 46 
30	3	9		101 73 72 63 60 58 55 51 41 
31	3	7		70 66 58 52 50 44 42 
32	3	15		99 81 80 76 75 73 70 66 65 64 63 62 61 51 50 
33	3	14		101 81 80 75 73 70 68 66 65 64 62 59 56 51 
34	3	12		81 75 73 72 71 70 68 61 56 53 51 50 
35	3	12		101 80 77 75 71 70 65 61 59 55 54 51 
36	3	8		101 70 66 65 63 61 60 44 
37	3	12		99 81 80 77 76 75 72 71 70 66 64 51 
38	3	14		101 100 99 93 79 76 73 71 69 68 67 66 61 58 
39	3	8		80 76 73 70 66 65 55 51 
40	3	9		99 80 76 75 71 68 65 61 51 
41	3	15		100 99 79 78 77 76 75 74 70 69 68 67 66 65 64 
42	3	9		96 80 77 75 71 65 64 59 51 
43	3	15		101 99 98 96 95 94 83 81 79 74 73 71 69 67 65 
44	3	7		99 96 95 80 75 71 51 
45	3	13		100 99 98 94 81 80 79 78 74 73 70 67 65 
46	3	12		100 99 98 97 93 80 71 70 69 67 64 61 
47	3	8		101 97 96 78 77 71 70 55 
48	3	9		97 96 79 78 77 74 67 64 59 
49	3	14		99 98 97 96 95 94 93 84 79 78 77 76 69 67 
50	3	14		101 100 98 97 96 94 92 91 88 84 79 78 77 69 
51	3	11		100 98 97 94 93 90 79 78 74 69 67 
52	3	9		101 99 97 93 91 85 77 74 61 
53	3	10		101 98 93 92 89 88 86 77 69 66 
54	3	9		100 98 93 92 91 88 79 69 64 
55	3	10		100 99 93 91 89 88 87 85 74 64 
56	3	10		99 98 97 96 93 89 83 76 69 67 
57	3	12		98 97 94 93 92 91 86 84 83 79 77 70 
58	3	10		98 97 96 94 87 86 83 82 80 74 
59	3	12		98 95 94 93 92 91 89 86 85 84 83 82 
60	3	7		92 89 88 84 83 77 69 
61	3	8		96 95 90 87 86 84 82 78 
62	3	6		94 90 88 86 83 69 
63	3	5		96 91 89 88 69 
64	3	6		95 94 86 84 83 82 
65	3	6		97 93 89 88 84 82 
66	3	6		96 95 85 84 83 82 
67	3	4		88 87 86 85 
68	3	4		95 85 83 82 
69	3	3		87 85 82 
70	3	3		90 88 82 
71	3	3		92 91 89 
72	3	3		94 83 82 
73	3	2		84 77 
74	3	2		92 84 
75	3	2		86 85 
76	3	2		91 90 
77	3	1		90 
78	3	1		83 
79	3	1		89 
80	3	1		91 
81	3	1		93 
82	3	1		102 
83	3	1		102 
84	3	1		102 
85	3	1		102 
86	3	1		102 
87	3	1		102 
88	3	1		102 
89	3	1		102 
90	3	1		102 
91	3	1		102 
92	3	1		102 
93	3	1		102 
94	3	1		102 
95	3	1		102 
96	3	1		102 
97	3	1		102 
98	3	1		102 
99	3	1		102 
100	3	1		102 
101	3	1		102 
102	1	0		
************************************************************************
REQUESTS/DURATIONS
jobnr.	mode	dur	R1	R2	N1	N2	
------------------------------------------------------------------------
1	1	0	0	0	0	0	
2	1	4	10	9	6	3	
	2	7	9	9	5	2	
	3	8	8	7	5	2	
3	1	4	9	5	4	9	
	2	5	9	5	3	5	
	3	6	8	5	2	1	
4	1	1	1	8	6	8	
	2	4	1	6	5	7	
	3	9	1	2	2	5	
5	1	1	5	4	4	8	
	2	2	5	4	3	4	
	3	9	5	4	3	3	
6	1	2	9	7	6	6	
	2	6	8	5	6	6	
	3	7	8	3	6	6	
7	1	7	8	7	8	5	
	2	9	4	7	5	3	
	3	10	2	5	5	3	
8	1	2	7	8	6	8	
	2	5	7	6	4	7	
	3	9	3	5	1	5	
9	1	4	5	8	6	9	
	2	5	5	7	5	9	
	3	6	3	4	4	7	
10	1	5	5	8	7	6	
	2	8	4	7	7	5	
	3	9	4	6	6	5	
11	1	6	5	4	5	8	
	2	7	5	2	4	7	
	3	9	5	2	2	6	
12	1	4	7	5	7	9	
	2	7	3	3	6	7	
	3	9	2	2	3	5	
13	1	2	9	5	5	9	
	2	3	9	4	4	9	
	3	6	9	3	4	9	
14	1	5	9	6	5	8	
	2	6	9	5	3	8	
	3	7	9	4	2	8	
15	1	4	7	9	9	9	
	2	5	6	9	8	7	
	3	6	4	7	7	5	
16	1	3	3	7	6	7	
	2	4	3	5	6	4	
	3	8	3	5	6	2	
17	1	1	4	8	10	2	
	2	4	4	7	7	1	
	3	9	3	6	3	1	
18	1	4	10	2	2	6	
	2	5	8	2	1	5	
	3	8	4	2	1	2	
19	1	1	8	7	9	8	
	2	5	7	7	9	7	
	3	7	4	6	9	7	
20	1	6	3	7	9	7	
	2	7	2	6	4	6	
	3	8	2	5	1	5	
21	1	4	4	10	6	6	
	2	6	4	9	5	5	
	3	10	4	9	4	4	
22	1	8	7	3	4	7	
	2	9	7	3	4	4	
	3	10	5	3	4	3	
23	1	1	6	5	8	7	
	2	2	5	4	6	5	
	3	7	5	2	6	3	
24	1	3	8	4	8	3	
	2	6	7	4	7	2	
	3	7	7	4	7	1	
25	1	2	3	6	2	8	
	2	3	3	5	2	8	
	3	8	3	5	2	7	
26	1	1	3	8	9	4	
	2	9	3	8	5	3	
	3	10	3	6	4	3	
27	1	2	6	8	10	6	
	2	3	5	7	9	2	
	3	4	5	4	9	2	
28	1	3	3	7	7	5	
	2	6	3	5	7	5	
	3	9	2	5	7	5	
29	1	4	7	8	7	1	
	2	5	4	4	7	1	
	3	8	3	2	7	1	
30	1	1	7	3	1	10	
	2	4	7	3	1	8	
	3	10	7	3	1	6	
31	1	1	10	5	10	7	
	2	3	7	5	6	3	
	3	4	3	3	4	2	
32	1	5	6	6	7	9	
	2	7	6	4	6	8	
	3	8	6	3	3	8	
33	1	1	4	6	6	8	
	2	6	3	6	4	6	
	3	9	3	5	4	3	
34	1	1	7	5	7	5	
	2	6	3	2	7	4	
	3	8	2	1	5	3	
35	1	6	8	10	6	8	
	2	7	6	7	5	5	
	3	8	3	4	4	4	
36	1	3	8	8	5	7	
	2	6	8	6	4	7	
	3	9	8	2	4	7	
37	1	2	7	4	9	8	
	2	3	3	4	8	4	
	3	6	2	4	8	2	
38	1	2	10	8	4	2	
	2	5	9	4	3	1	
	3	7	8	4	2	1	
39	1	1	6	3	9	7	
	2	2	6	3	8	5	
	3	8	4	3	8	5	
40	1	6	6	9	9	8	
	2	7	5	5	5	5	
	3	9	4	3	4	2	
41	1	1	5	2	4	9	
	2	2	5	2	3	8	
	3	5	3	1	2	6	
42	1	3	6	5	7	7	
	2	5	5	2	6	7	
	3	7	4	2	6	3	
43	1	4	5	5	5	3	
	2	5	3	3	3	2	
	3	8	2	3	3	1	
44	1	2	4	8	8	9	
	2	7	4	8	8	5	
	3	9	4	8	8	4	
45	1	1	3	2	10	5	
	2	2	2	2	9	4	
	3	3	2	2	8	3	
46	1	5	7	6	3	2	
	2	8	7	3	3	1	
	3	9	7	2	3	1	
47	1	6	5	7	8	4	
	2	7	4	3	5	4	
	3	10	4	2	5	1	
48	1	2	4	4	4	1	
	2	5	3	4	4	1	
	3	9	3	3	3	1	
49	1	1	3	7	3	7	
	2	2	3	6	2	7	
	3	9	3	6	1	3	
50	1	1	7	10	8	6	
	2	5	7	9	6	5	
	3	9	6	8	2	3	
51	1	5	10	2	8	3	
	2	6	9	2	8	2	
	3	9	9	2	7	2	
52	1	6	2	5	6	7	
	2	8	2	5	6	6	
	3	9	1	4	2	7	
53	1	3	7	5	4	8	
	2	4	6	5	4	6	
	3	8	6	3	4	6	
54	1	3	9	10	6	10	
	2	6	7	7	3	10	
	3	9	6	5	2	10	
55	1	4	8	8	7	5	
	2	7	7	5	5	5	
	3	10	3	1	4	5	
56	1	1	4	2	6	4	
	2	3	4	2	5	3	
	3	7	3	2	5	3	
57	1	1	7	7	7	4	
	2	2	6	6	6	3	
	3	4	6	5	4	2	
58	1	1	8	5	3	9	
	2	3	7	5	3	9	
	3	4	6	5	1	8	
59	1	3	7	9	3	6	
	2	7	6	7	3	3	
	3	10	3	6	3	3	
60	1	1	9	5	9	8	
	2	4	9	3	9	8	
	3	5	9	2	9	8	
61	1	3	5	9	4	4	
	2	4	3	5	2	2	
	3	5	1	3	2	2	
62	1	5	10	3	7	10	
	2	6	8	2	6	6	
	3	7	7	1	6	6	
63	1	3	8	10	9	9	
	2	8	6	8	8	8	
	3	10	5	8	7	8	
64	1	4	4	6	2	6	
	2	5	2	4	2	5	
	3	10	1	1	2	1	
65	1	3	9	3	8	5	
	2	6	9	2	6	4	
	3	7	9	2	3	3	
66	1	2	7	7	9	7	
	2	4	4	6	8	7	
	3	5	3	5	8	7	
67	1	3	6	3	10	2	
	2	6	2	1	9	2	
	3	8	1	1	9	1	
68	1	8	5	6	8	4	
	2	9	5	6	7	3	
	3	10	5	5	7	3	
69	1	1	5	6	7	10	
	2	6	3	3	7	7	
	3	9	2	1	7	7	
70	1	5	8	4	5	4	
	2	6	4	3	4	2	
	3	7	4	3	2	2	
71	1	1	6	8	6	7	
	2	8	5	8	5	5	
	3	10	5	6	5	5	
72	1	4	9	4	5	1	
	2	6	6	4	4	1	
	3	7	3	3	4	1	
73	1	2	8	10	5	4	
	2	5	6	9	3	2	
	3	10	5	7	3	1	
74	1	1	3	5	7	6	
	2	7	2	4	5	3	
	3	9	2	4	4	3	
75	1	5	7	4	9	5	
	2	6	6	3	4	4	
	3	10	6	1	1	4	
76	1	6	2	1	4	4	
	2	7	2	1	4	3	
	3	9	2	1	3	1	
77	1	4	1	3	7	9	
	2	9	1	2	6	7	
	3	10	1	2	6	6	
78	1	2	5	6	3	8	
	2	7	4	4	2	7	
	3	8	4	3	1	7	
79	1	1	8	3	6	3	
	2	3	6	3	4	3	
	3	4	6	3	1	2	
80	1	5	3	1	10	8	
	2	6	2	1	9	8	
	3	7	1	1	8	6	
81	1	2	9	3	7	7	
	2	6	5	2	4	5	
	3	10	4	2	2	5	
82	1	2	6	7	3	7	
	2	3	5	6	3	5	
	3	10	4	5	3	3	
83	1	3	5	7	9	8	
	2	4	3	6	8	5	
	3	9	3	6	8	4	
84	1	1	5	4	8	9	
	2	7	3	3	6	7	
	3	8	3	2	6	6	
85	1	1	3	10	8	9	
	2	8	1	9	7	5	
	3	10	1	9	2	3	
86	1	3	10	8	7	4	
	2	8	8	7	5	3	
	3	9	5	7	2	2	
87	1	1	4	8	7	8	
	2	4	3	7	5	5	
	3	7	2	4	3	4	
88	1	4	5	3	4	3	
	2	5	4	2	3	2	
	3	10	4	2	3	1	
89	1	1	3	6	6	9	
	2	2	3	4	4	9	
	3	9	2	2	2	9	
90	1	3	8	2	4	5	
	2	7	7	2	2	3	
	3	8	6	2	1	2	
91	1	1	9	4	3	5	
	2	5	7	4	3	3	
	3	6	3	4	3	1	
92	1	1	4	8	7	8	
	2	2	4	7	4	7	
	3	9	2	4	2	6	
93	1	1	7	5	10	8	
	2	2	5	5	5	7	
	3	7	4	5	5	6	
94	1	1	6	9	8	7	
	2	3	5	9	8	6	
	3	9	5	9	8	5	
95	1	4	8	6	6	8	
	2	6	8	4	4	7	
	3	9	5	3	3	6	
96	1	1	7	1	7	7	
	2	2	7	1	7	6	
	3	10	7	1	7	5	
97	1	5	7	7	6	7	
	2	6	5	6	4	5	
	3	7	2	6	2	3	
98	1	4	5	5	1	9	
	2	5	3	4	1	9	
	3	6	3	2	1	9	
99	1	2	8	7	5	6	
	2	5	7	6	2	5	
	3	9	5	5	2	4	
100	1	1	4	1	6	8	
	2	2	4	1	5	8	
	3	4	2	1	3	8	
101	1	6	5	9	5	1	
	2	7	3	7	4	1	
	3	8	3	4	4	1	
102	1	0	0	0	0	0	
************************************************************************

 RESOURCE AVAILABILITIES 
	R 1	R 2	N 1	N 2
	35	32	576	579

************************************************************************
